decision_x1=[0,4];
decision_x2=[0,4];
decision_x3=[0,4];
decision_x4=[0,4];
decision_x5=[0,4];
decision_x6=[0,4];
random_y1=[0,4];
random_y2=[0,4];
random_y3=[0,4];
constraint_x2_x1=[
0,1,5.7|
0,2,3.7|
0,3,6.5|
0,4,8.9|
1,0,2.4|
1,2,1.3|
1,3,6.5|
1,4,1.5|
2,0,3.2|
2,1,0.0084|
2,3,0.026|
2,4,9.6|
3,0,8.5|
3,1,1.2|
3,2,7.6|
3,4,7.1|
4,0,9.6|
4,1,7.7|
4,2,7.5|
4,3,2.9|
];
constraint_x4_x1=[
0,1,0.64|
0,2,9.1|
0,3,9.1|
0,4,8.3|
1,0,6.2|
1,2,4.2|
1,3,1.4|
1,4,5.4|
2,0,7.6|
2,1,7.4|
2,3,4.4|
2,4,4.8|
3,0,1.5|
3,1,3.9|
3,2,0.26|
3,4,3.7|
4,0,1.9|
4,1,1.3|
4,2,8|
4,3,4.2|
];
constraint_x5_x1=[
0,1,4.1|
0,2,0.88|
0,3,4.1|
0,4,3.1|
1,0,3.3|
1,2,8.3|
1,3,3.1|
1,4,1.3|
2,0,9.5|
2,1,7.4|
2,3,7.8|
2,4,4.4|
3,0,0.45|
3,1,2.3|
3,2,7.3|
3,4,1.3|
4,0,1.9|
4,1,3.6|
4,2,8|
4,3,9.7|
];
constraint_x5_x3=[
0,1,7.9|
0,2,4.7|
0,3,9.7|
0,4,1.3|
1,0,9.3|
1,2,2.4|
1,3,8.5|
1,4,6.9|
2,0,3.7|
2,1,9.3|
2,3,1.6|
2,4,6.3|
3,0,1.1|
3,1,1.5|
3,2,4|
3,4,1.8|
4,0,2.2|
4,1,0.08|
4,2,5.9|
4,3,2.8|
];
constraint_x5_x4=[
0,1,0.86|
0,2,6.3|
0,3,5.5|
0,4,1.3|
1,0,3.7|
1,2,1.1|
1,3,6|
1,4,5.4|
2,0,2.7|
2,1,4.2|
2,3,3.5|
2,4,4.8|
3,0,8|
3,1,4.4|
3,2,9.7|
3,4,7.3|
4,0,4.4|
4,1,5.7|
4,2,4|
4,3,7.5|
];
constraint_x6_x2=[
0,1,7.4|
0,2,5.3|
0,3,7.8|
0,4,1.8|
1,0,3.7|
1,2,5.6|
1,3,9.1|
1,4,9.3|
2,0,1.6|
2,1,1.9|
2,3,5.4|
2,4,5.5|
3,0,8.2|
3,1,6.7|
3,2,2.8|
3,4,7.4|
4,0,2.9|
4,1,5.9|
4,2,8.1|
4,3,8.1|
];
constraint_x6_x4=[
0,1,5.9|
0,2,0.023|
0,3,1.4|
0,4,4.1|
1,0,7.5|
1,2,6.8|
1,3,6.5|
1,4,1.1|
2,0,8.2|
2,1,6.9|
2,3,1.6|
2,4,7.7|
3,0,7.5|
3,1,1.3|
3,2,2.4|
3,4,6.5|
4,0,2.1|
4,1,6.2|
4,2,3.5|
4,3,0.34|
];
constraint_x6_x5=[
0,1,6.5|
0,2,5.6|
0,3,3.6|
0,4,5.5|
1,0,1.9|
1,2,2.8|
1,3,7|
1,4,9.3|
2,0,0.52|
2,1,6.4|
2,3,3.2|
2,4,3.4|
3,0,9.1|
3,1,1.9|
3,2,8.4|
3,4,7.4|
4,0,3|
4,1,8.1|
4,2,4|
4,3,6|
];
constraint_x1_y1=[
0,0,4.2|
0,1,0.46|
0,2,9.6|
0,3,1|
0,4,1.4|
1,0,10|
1,1,6.1|
1,2,7.9|
1,3,8.1|
1,4,7.7|
2,0,4.8|
2,1,9.8|
2,2,8.5|
2,3,0.24|
2,4,3|
3,0,4.9|
3,1,9|
3,2,9.5|
3,3,3.2|
3,4,5.7|
4,0,0.69|
4,1,1.2|
4,2,0.93|
4,3,9.7|
4,4,9.2|
];
constraint_x2_y2=[
0,0,0.57|
0,1,3.8|
0,2,1.3|
0,3,6|
0,4,2.6|
1,0,7.9|
1,1,0.61|
1,2,5.7|
1,3,3.2|
1,4,8.3|
2,0,0.13|
2,1,8.8|
2,2,5.6|
2,3,9.1|
2,4,8.4|
3,0,1.9|
3,1,3.1|
3,2,4.2|
3,3,3|
3,4,5.2|
4,0,4.3|
4,1,5.5|
4,2,6.3|
4,3,0.44|
4,4,2.3|
];
constraint_x3_y3=[
0,0,8.4|
0,1,5.9|
0,2,0.031|
0,3,0.32|
0,4,2.2|
1,0,2.1|
1,1,5.9|
1,2,7.7|
1,3,5|
1,4,5.4|
2,0,3.7|
2,1,8.8|
2,2,3|
2,3,0.39|
2,4,6|
3,0,5.9|
3,1,1.8|
3,2,9.8|
3,3,5|
3,4,9.5|
4,0,6.6|
4,1,5|
4,2,5.2|
4,3,5.3|
4,4,2.3|
];
initial_distribution_y1=[0.15,0.3,0.14,0.23,0.18];
initial_distribution_y2=[0.085,0.4,0.37,0.098,0.045];
initial_distribution_y3=[0.25,0.045,0.11,0.31,0.29];
transition_y1=[
0.34,0.25,0.13,0.039,0.23|
0.039,0.36,0.15,0.16,0.29|
0.33,0.28,0.22,0.035,0.14|
0.075,0.17,0.26,0.2,0.29|
0.43,0.0099,0.26,0.096,0.2|
];
transition_y2=[
0.077,0.098,0.34,0.26,0.22|
0.2,0.095,0.25,0.17,0.29|
0.011,0.24,0.23,0.26,0.27|
0.2,0.23,0.23,0.16,0.18|
0.16,0.21,0.22,0.17,0.24|
];
transition_y3=[
0.39,0.18,0.11,0.23,0.097|
0.28,0.081,0.17,0.2,0.27|
0.056,0.037,0.36,0.19,0.36|
0.19,0.14,0.26,0.33,0.079|
0.25,0.36,0.15,0.11,0.13|
];
